c pcminimize - minimizing a CNF with respect to propagation completeness by iterative removing of absorbed clauses.
c Petr Kucera, 2016-2021
c Version 2.7, revision 59, git hash 4910a71, date 2024-07-16 20:17:42 +0200
p cnf 431 683
6 -251 0
-84 -251 0
-222 -251 0
251 -254 0
252 -254 0
253 -254 0
254 -255 0
170 -255 0
154 -256 0
7 -256 0
253 -257 0
-7 -257 0
256 257 -258 0
259 -260 0
84 -260 0
-222 -261 0
-84 -261 0
260 261 -262 0
258 -263 0
262 -263 0
263 -265 0
264 -265 0
265 -266 0
-170 -266 0
255 266 -267 0
-74 -268 0
153 -268 0
267 -269 0
268 -269 0
269 -270 0
208 -270 0
6 -271 0
-84 -271 0
170 -271 0
-222 -271 0
271 -272 0
7 -272 0
-170 -273 0
264 -273 0
273 -274 0
259 -274 0
274 -275 0
84 -275 0
6 -276 0
170 -276 0
264 -277 0
-170 -277 0
276 277 -278 0
278 -279 0
-222 -279 0
279 -280 0
-84 -280 0
275 280 -281 0
281 -282 0
-7 -282 0
272 282 -283 0
283 -284 0
-154 -284 0
284 -287 0
285 -287 0
286 -287 0
287 -288 0
-208 -288 0
270 288 -289 0
99 -290 0
184 -290 0
291 -292 0
-184 -292 0
290 292 -293 0
293 -294 0
229 -294 0
-99 -295 0
-184 -295 0
295 -296 0
-229 -296 0
294 296 -297 0
34 -298 0
289 -299 0
297 -299 0
298 -299 0
299 -300 0
215 -300 0
34 -301 0
154 -301 0
302 -303 0
-154 -303 0
301 303 -304 0
6 -305 0
-84 -305 0
304 -306 0
305 -306 0
306 -307 0
252 -307 0
307 -308 0
170 -308 0
34 -309 0
154 -309 0
309 -310 0
7 -310 0
304 -311 0
-7 -311 0
310 311 -312 0
312 -314 0
264 -314 0
313 -314 0
314 -315 0
-170 -315 0
308 315 -316 0
316 -317 0
268 -317 0
317 -318 0
208 -318 0
6 -319 0
-84 -319 0
170 -319 0
319 -320 0
7 -320 0
-170 -321 0
264 -321 0
321 -322 0
84 -322 0
278 -323 0
-84 -323 0
322 323 -324 0
324 -325 0
-7 -325 0
320 325 -326 0
326 -327 0
-154 -327 0
302 -327 0
327 -328 0
285 -328 0
286 -328 0
328 -329 0
-208 -329 0
318 329 -330 0
99 -331 0
184 -331 0
331 -332 0
79 -332 0
297 -333 0
-79 -333 0
332 333 -334 0
330 -336 0
334 -336 0
-222 -336 0
335 -336 0
336 -337 0
-215 -337 0
339 -340 0
247 -340 0
62 -341 0
-247 -341 0
340 341 -342 0
67 -343 0
344 -346 0
345 -346 0
338 -347 0
342 -347 0
343 -347 0
346 -347 0
18 -348 0
342 -350 0
349 -350 0
350 -351 0
44 -351 0
339 -353 0
352 -353 0
353 -354 0
37 -354 0
342 -355 0
-37 -355 0
354 355 -356 0
356 -358 0
357 -358 0
358 -359 0
-44 -359 0
351 359 -360 0
-7 -361 0
-154 -361 0
-208 -361 0
360 -362 0
361 -362 0
285 -362 0
362 -363 0
74 -363 0
153 -364 0
154 -364 0
208 -364 0
364 -365 0
7 -365 0
208 -366 0
154 -366 0
367 -368 0
-154 -368 0
366 368 -369 0
369 -370 0
153 -370 0
-154 -371 0
-208 -371 0
371 -372 0
-153 -372 0
370 372 -373 0
373 -374 0
-7 -374 0
365 374 -375 0
375 -377 0
342 -377 0
376 -377 0
377 -378 0
-74 -378 0
345 -380 0
67 -380 0
250 -381 0
-67 -381 0
380 381 -382 0
382 -383 0
121 -383 0
384 -385 0
345 -385 0
385 -386 0
-121 -386 0
34 -388 0
84 -388 0
-170 -388 0
222 -388 0
379 -389 0
387 -389 0
297 -389 0
388 -389 0
264 -389 0
-18 -390 0
392 -393 0
173 -393 0
-173 -394 0
396 -397 0
188 -397 0
-188 -398 0
400 -401 0
69 -401 0
402 -404 0
403 -404 0
404 -405 0
-69 -405 0
408 -412 0
409 -412 0
410 -412 0
411 -412 0
391 -413 0
395 -413 0
399 -413 0
406 -413 0
412 -413 0
-1 0
-2 0
3 0
4 0
5 0
8 0
9 0
-10 0
-11 0
12 0
13 0
14 0
-15 0
16 0
-17 0
-19 0
20 0
21 0
-22 0
24 0
-25 0
-26 0
-27 0
28 0
-29 0
-30 0
-31 0
-32 0
33 0
-35 0
36 0
-38 0
39 0
-40 0
-41 0
-42 0
-43 0
-45 0
-46 0
47 0
-48 0
-49 0
50 0
51 0
-52 0
-53 0
-54 0
-55 0
-56 0
57 0
58 0
59 0
60 0
-61 0
-63 0
-64 0
65 0
66 0
-68 0
-70 0
-71 0
-72 0
-73 0
-75 0
-76 0
77 0
78 0
-80 0
81 0
-82 0
-83 0
-85 0
86 0
-87 0
-88 0
-89 0
90 0
91 0
92 0
-93 0
94 0
95 0
96 0
97 0
-98 0
100 0
-101 0
-102 0
103 0
104 0
-105 0
-106 0
-107 0
108 0
-109 0
110 0
111 0
-112 0
113 0
-114 0
-115 0
-116 0
-117 0
118 0
-122 0
123 0
124 0
-125 0
126 0
127 0
-128 0
129 0
131 0
-132 0
133 0
-134 0
-135 0
136 0
137 0
-138 0
-140 0
-141 0
-142 0
-143 0
144 0
-145 0
146 0
147 0
-148 0
149 0
150 0
-151 0
-152 0
155 0
-156 0
-157 0
-158 0
159 0
160 0
-161 0
-162 0
163 0
-164 0
165 0
-166 0
-167 0
-168 0
169 0
-171 0
-172 0
-174 0
-175 0
176 0
177 0
178 0
180 0
-181 0
-182 0
183 0
185 0
186 0
187 0
189 0
-190 0
-191 0
-192 0
-193 0
-194 0
-195 0
196 0
197 0
198 0
-199 0
-200 0
-201 0
-203 0
204 0
-205 0
206 0
-209 0
-210 0
-211 0
212 0
-213 0
214 0
216 0
-217 0
-218 0
220 0
221 0
-223 0
224 0
225 0
226 0
227 0
228 0
-230 0
231 0
-232 0
-233 0
-234 0
235 0
-236 0
237 0
-238 0
-240 0
-241 0
242 0
-243 0
244 0
245 0
-246 0
248 0
-249 0
-424 425 0
-420 421 0
-417 419 0
-422 423 0
-4 415 0
-51 422 0
-108 417 0
-419 420 0
-339 340 353 0
-305 306 0
173 394 0
-338 347 0
-314 315 0
-287 288 0
120 335 0
-334 336 0
-333 334 0
-288 289 0
-331 332 0
-328 329 0
-358 359 0
-322 324 0
-407 413 0
-341 342 0
-74 286 363 0
-319 320 0
-313 314 0
-286 287 328 0
-308 316 0
-300 338 0
-320 326 0
-299 300 0
-329 330 0
-298 299 0
-277 278 0
67 381 384 0
-389 390 0
-337 338 0
170 266 273 277 315 321 388 0
-360 362 0
-430 431 0
-327 328 0
-387 389 0
-323 324 0
-265 266 0
-311 312 0
-294 297 0
-283 284 0
-208 270 318 364 366 367 0
-365 375 0
153 285 372 0
-254 255 0
-6 251 264 271 276 305 319 0
-7 252 256 272 310 320 365 0
-259 260 274 0
-222 259 388 0
-256 258 0
-34 298 301 302 309 388 0
-349 350 0
-402 404 0
-266 267 0
-229 294 331 0
-267 269 0
-257 258 0
-247 340 352 0
-67 343 380 384 0
-326 327 0
-184 290 331 0
-260 262 0
-316 317 0
-263 265 0
-279 280 0
-289 299 0
-318 330 0
-153 268 285 364 370 0
-264 265 273 277 314 321 389 0
-291 292 0
-261 262 0
-317 318 0
-170 255 271 276 308 319 0
-290 293 0
-278 279 323 0
-309 310 0
-293 294 0
-428 429 0
-272 283 0
-84 260 275 313 322 388 0
-23 392 0
-330 336 0
99 291 295 0
-367 368 0
229 296 0
-307 308 0
6 264 0
-340 342 0
-253 254 257 0
-188 397 0
-274 275 0
-154 253 256 301 309 364 366 0
-301 304 0
121 344 386 0
154 253 284 303 327 361 368 371 0
-292 293 0
-113 427 0
-268 269 317 0
-269 270 0
-271 272 0
-297 299 333 389 0
-273 274 0
-262 263 0
-321 322 0
-303 304 0
-427 428 0
-275 281 0
247 341 352 0
-324 325 0
-353 354 0
-425 426 0
-276 278 0
-325 326 0
-302 303 327 0
-304 306 311 0
-280 281 0
-37 354 0
-281 282 0
-310 312 0
-295 296 0
-282 283 0
-312 314 0
-296 297 0
-429 430 0
-284 287 0
-404 405 0
222 251 259 261 271 279 336 0
-285 287 328 362 0
74 268 286 378 0
-335 336 0
208 288 329 361 367 371 0
202 396 0
-342 347 350 355 377 0
-343 347 0
-130 402 0
-252 254 307 0
-121 344 383 0
-370 373 0
-344 346 0
-423 424 0
-250 345 381 0
250 345 0
-345 346 380 385 0
-347 348 0
-374 375 0
-79 332 0
-350 351 0
84 251 261 271 280 305 313 319 323 0
-351 360 0
-379 389 0
-251 254 0
7 252 257 282 311 325 361 374 0
-354 356 0
-355 356 0
-356 358 0
179 357 0
-363 379 0
-357 358 0
44 359 0
-359 360 0
-362 363 0
-62 339 341 0
-364 365 0
215 337 0
-366 369 0
-368 369 0
-369 370 0
-371 372 0
184 292 295 0
-372 373 0
-373 374 0
-375 377 0
-415 416 0
-400 401 0
-376 377 0
-315 316 0
-258 263 0
-378 379 0
-270 289 0
-380 382 0
-381 382 0
-382 383 0
-383 387 0
-384 385 0
-385 386 0
-386 387 0
22 418 0
-388 389 0
-44 343 351 376 0
-332 334 0
-392 393 0
-413 414 0
-352 353 0
-173 393 0
69 405 0
-396 397 0
188 398 0
-377 378 0
-69 401 0
219 403 0
-403 404 0
-346 347 0
-255 267 0
62 339 0
-336 337 0
-361 362 0
-306 307 0
34 302 0
53 407 0
